%-----------------------------------------------------------------------------%
% Dual Arm Multi Capacity Multi Tool Scheduling / Routing
% Assembly Configuration
% Auto Generated by python script, authored by Johan Ludde Wessen 
%-----------------------------------------------------------------------------%


task_durations = [|26, 29, 29, 29, 33, 27, 28, 26, 23, 27, 30, 42, 53, 45, 54, 52, 53, 63, 50, 51, 44, 60,  7,  5,  6,  6,  7,  7,  5,  8,  6,  7
                  |33, 29, 29, 28, 30, 30, 24, 26, 23, 29, 24, 46, 49, 41, 51, 49, 48, 62, 49, 46, 55, 49,  6,  6,  7,  6,  5,  7,  5,  8,  6,  7
                  |];


TRAY_TASKS = 1..9;
CAMERA_TASKS = {  };
OUTPUT_TASKS = { 22 };


empty_gripper_tasks = 23..32;


gripper_pick_tasks_orders = [|1, 12, -1
|2, 13, -1
|3, 14, -1
|4, 15, -1
|5, 16, -1
|6, 17, -1
|7, 18, -1
|8, 19, -1
|9, 20, -1
|10, 21, -1
|11, 22, -1
|];

suction_pick_tasks_orders = [||];

fixture_task_orders = [|12, 23, 13, 24, 14, 25, 15, 26, 10, -1, -1, -1, -1, -1
|16, 27, 17, 28, 18, 29, 19, 30, 20, 31, 21, 32, 11, -1
|];

